nb_case = 9;
nb_op = 4;

A = [_,1,_,_,2,_,_,_,_,_];
B = [_,3,_,_,2,_,_,_,_,_];
C = [_,_,_,_,_,_,7,_,_,_];
D = [_,_,_,_,1,_,_,_,_,_];

opA = ["+","*","*","*"];
opB = ["+","*","*","+"];
opC = ["-","*","-","+"];
opD = ["+","*","*","+"];

opAB = "+";
opBC = "-";
opCD = "+";
opDA = "-";

AB = 3;
BC = 3;
CD = 1;
DA = 3;